10J3M/DAT/10J3MNLR-7.dat
10 3
19.6708 28.5012
24.5827 33.8292
32.2372 19.4889
14.51 22.2816
27.6711 13.3926
22.0869 26.6083
26.405 7.9324
26.7521 23.0572
28.1732 43.7367
27.6058 46.9238
88.584