10J3M/SOL/10J3MNLR-7.sol
solution status: optimal solution found
objective value:                     76.5519666666667
x#1#1                               0.542031636442494 	(obj:0)
x#1#2                               0.233704486104082 	(obj:0)
x#1#3                               0.224263877453423 	(obj:0)
x#2#2                                               1 	(obj:0)
x#3#1                                               1 	(obj:0)
x#4#2                                               1 	(obj:0)
x#5#1                                               1 	(obj:0)
x#6#3                                               1 	(obj:0)
x#7#3                                               1 	(obj:0)
x#8#2                                               1 	(obj:0)
x#9#1                               0.987318277518675 	(obj:0)
x#9#2                              0.0126817224813247 	(obj:0)
x#10#2                             0.0436555420782519 	(obj:0)
x#10#3                              0.956344457921748 	(obj:0)
z                                    76.5519666666667 	(obj:1)
